Name:		mgval_0.40_5C
Optimal value:	-1
#Vehicles:	5
Capacity:	130
Depot Node:	1
#Nodes:		34
#Edges:		17
#Arcs:		81
#Required N:	26
#Required E:	10
#Required A:	48

ReN.	DEMAND	S. COST
N2	3	3
N3	3	3
N4	13	13
N6	8	8
N7	18	18
N8	15	15
N10	3	3
N12	14	14
N13	8	8
N15	11	11
N16	9	9
N17	6	6
N18	7	7
N19	10	10
N20	6	6
N21	11	11
N22	6	6
N23	3	3
N24	4	4
N25	9	9
N26	13	13
N29	15	15
N30	4	4
N31	7	7
N32	3	3
N33	12	12

ReE.	FROM N.	TO N.	T. COST	DEMAND	S. COST
E8	20	26	3	7	7
E9	28	33	3	8	8
E10	10	11	8	12	12
E11	6	18	9	18	18
E12	24	34	10	16	16
E13	3	10	2	8	8
E14	12	19	4	9	9
E15	28	34	2	9	9
E16	9	10	3	7	7
E17	8	14	2	5	5

EDGE	FROM N.	TO N.	T. COST
NrE1	13	14	4
NrE2	22	23	1
NrE3	29	30	4
NrE4	12	18	5
NrE5	8	9	7
NrE6	4	10	4
NrE7	21	27	7

ReA.	FROM N.	TO N.	T. COST	DEMAND	S. COST
A34	31	30	6	4	4
A35	28	23	5	3	3
A36	13	19	6	4	4
A37	12	6	7	6	6
A38	4	5	9	12	12
A39	9	3	6	4	4
A40	3	9	6	3	3
A41	25	30	5	5	5
A42	17	11	7	9	9
A43	3	2	5	3	3
A44	4	3	3	4	4
A45	27	28	10	13	13
A46	21	22	5	4	4
A47	1	2	10	11	11
A48	20	14	3	5	5
A49	6	1	2	3	3
A50	11	24	15	19	19
A51	25	26	9	8	8
A52	19	25	5	6	6
A53	19	18	7	7	7
A54	28	22	4	4	4
A55	16	17	5	8	8
A56	11	5	4	3	3
A57	11	4	10	8	8
A58	27	32	5	3	3
A59	22	28	4	4	4
A60	2	13	9	8	8
A61	18	19	7	7	7
A62	5	11	4	3	3
A63	15	22	9	7	7
A64	22	15	9	8	8
A65	30	25	5	6	6
A66	24	17	9	7	7
A67	13	2	9	8	8
A68	13	7	5	3	3
A69	34	33	1	2	2
A70	21	15	4	6	6
A71	2	8	8	6	6
A72	13	12	2	4	4
A73	31	26	9	12	12
A74	15	21	4	6	6
A75	6	12	7	5	5
A76	9	15	5	4	4
A77	23	28	5	2	2
A78	14	15	1	3	3
A79	20	21	2	3	3
A80	14	20	3	5	5
A81	16	23	9	16	16

ARC	FROM N.	TO N.	T. COST
NrA1	19	13	6
NrA2	12	13	2
NrA3	19	20	6
NrA4	23	24	5
NrA5	20	19	6
NrA6	1	6	2
NrA7	25	29	7
NrA8	16	10	2
NrA9	31	32	3
NrA10	10	16	2
NrA11	15	9	5
NrA12	4	11	10
NrA13	29	18	9
NrA14	18	29	9
NrA15	22	21	5
NrA16	33	34	1
NrA17	26	25	9
NrA18	3	4	3
NrA19	7	6	9
NrA20	6	7	9
NrA21	32	27	5
NrA22	16	15	5
NrA23	17	24	9
NrA24	7	13	5
NrA25	2	3	5
NrA26	30	31	6
NrA27	15	16	5
NrA28	26	27	4
NrA29	8	2	8
NrA30	1	7	8
NrA31	15	14	1
NrA32	33	32	5
NrA33	24	23	5
